Maximize
  - 15 x0 + 46 x1 - 42 x2 + 0 x3 + 33 x4 - 30 x5 + 19 x6 - 20 x7 + 26 x8
   + 27 x9 + 7 x10 + 4 x11 + 0 x12 + 0 x13 - 15 x14 - 31 x15 + 0 x16
   + 0 x17 + 0 x18 - 31 x19 + 49 x20 - 9 x21 + 0 x22 + 46 x23 - 34 x24
   + 0 x25 + 4 x26 + 0 x27 + 19 x28 - 9 x29 + [ 84 x0 * x1 + 98 x0 * x2
   + 92 x0 * x5 - 14 x0 * x6 + 46 x0 * x7 + 68 x0 * x8 + 90 x0 * x9
   - 8 x0 * x10 - 12 x0 * x11 - 28 x0 * x12 + 96 x0 * x13 - 16 x0 * x15
   + 58 x0 * x16 + 98 x0 * x17 - 88 x0 * x18 - 50 x0 * x19 - 2 x0 * x20
   - 58 x0 * x24 - 90 x0 * x25 + 84 x0 * x26 + 18 x0 * x27 - 40 x0 * x28
   + 44 x0 * x29 - 27 x1 ^2 + 20 x1 * x3 + 72 x1 * x4 - 64 x1 * x5
   + 96 x1 * x6 - 60 x1 * x7 - 14 x1 * x8 + 60 x1 * x11 - 42 x1 * x12
   + 10 x1 * x13 + 74 x1 * x15 + 58 x1 * x17 + 44 x1 * x18 + 44 x1 * x20
   - 14 x1 * x21 - 48 x1 * x24 + 40 x1 * x26 + 80 x1 * x28 + 32 x1 * x29
   + 54 x2 * x3 + 80 x2 * x4 - 62 x2 * x5 - 32 x2 * x6 - 66 x2 * x8
   - 10 x2 * x10 + 34 x2 * x11 + 72 x2 * x12 - 2 x2 * x13 + 42 x2 * x14
   - 20 x2 * x15 + 8 x2 * x17 - 78 x2 * x20 + 34 x2 * x21 - 12 x2 * x22
   + 34 x2 * x23 - 46 x2 * x25 - 24 x2 * x26 - 74 x2 * x27 + 72 x2 * x29
   - 74 x3 * x4 - 60 x3 * x5 + 10 x3 * x7 - 32 x3 * x8 + 70 x3 * x9
   + 82 x3 * x10 - 32 x3 * x11 + 96 x3 * x12 + 12 x3 * x13 - 84 x3 * x15
   + 44 x3 * x16 - 60 x3 * x17 - 90 x3 * x19 - 82 x3 * x20 + 20 x3 * x21
   - 72 x3 * x25 - 86 x3 * x28 + 60 x3 * x29 - 4 x4 * x5 + 26 x4 * x6
   - 8 x4 * x7 - 32 x4 * x9 + 12 x4 * x10 + 78 x4 * x12 + 22 x4 * x17
   + 66 x4 * x18 - 92 x4 * x19 - 58 x4 * x20 - 96 x4 * x21 + 30 x4 * x22
   + 38 x4 * x24 - 56 x4 * x25 - 52 x4 * x26 + 86 x4 * x27 - 22 x4 * x28
   - 98 x4 * x29 + 37 x5 ^2 + 96 x5 * x7 + 34 x5 * x8 + 58 x5 * x9
   - 8 x5 * x10 + 16 x5 * x11 + 68 x5 * x13 + 10 x5 * x16 + 82 x5 * x17
   - 94 x5 * x18 + 6 x5 * x19 + 2 x5 * x21 + 94 x5 * x23 + 26 x5 * x24
   - 46 x5 * x25 + 62 x5 * x27 + 22 x5 * x28 - 22 x6 ^2 - 16 x6 * x7
   - 76 x6 * x9 - 48 x6 * x10 + 10 x6 * x11 + 74 x6 * x15 + 18 x6 * x17
   - 18 x6 * x20 + 34 x6 * x21 - 62 x6 * x24 - 70 x6 * x25 - 10 x6 * x26
   + 94 x6 * x27 + 82 x6 * x28 + 86 x6 * x29 + 37 x7 ^2 + 96 x7 * x8
   + 94 x7 * x10 - 78 x7 * x11 - 12 x7 * x13 + 38 x7 * x16 + 58 x7 * x17
   + 18 x7 * x18 - 4 x7 * x20 + 4 x7 * x21 + 44 x7 * x22 + 98 x7 * x23
   + 28 x7 * x24 + 12 x7 * x26 + 58 x7 * x27 - 4 x7 * x28 + 26 x8 * x9
   + 36 x8 * x10 - 38 x8 * x11 + 76 x8 * x14 - 90 x8 * x16 + 98 x8 * x17
   - 82 x8 * x18 + 34 x8 * x19 - 66 x8 * x20 + 4 x8 * x21 - 40 x8 * x22
   - 12 x8 * x24 + 72 x8 * x25 - 50 x8 * x26 - 16 x8 * x27 - 80 x8 * x28
   - 24 x8 * x29 - 18 x9 ^2 - 96 x9 * x11 + 70 x9 * x12 - 16 x9 * x14
   + 40 x9 * x18 + 86 x9 * x19 + 36 x9 * x20 - 38 x9 * x23 - 12 x9 * x24
   - 82 x9 * x25 + 50 x9 * x26 + 4 x9 * x29 - 23 x10 ^2 + 88 x10 * x11
   - 88 x10 * x12 + 80 x10 * x15 + 96 x10 * x18 + 54 x10 * x19
   - 16 x10 * x22 - 52 x10 * x23 + 32 x10 * x24 - 84 x10 * x26
   - 70 x10 * x28 + 29 x11 ^2 + 72 x11 * x13 + 20 x11 * x14 - 62 x11 * x15
   + 22 x11 * x16 + 60 x11 * x17 + 42 x11 * x19 - 70 x11 * x21
   + 80 x11 * x22 + 44 x11 * x24 + 54 x11 * x25 + 80 x11 * x26
   - 16 x11 * x27 + 62 x11 * x28 + 62 x11 * x29 + 26 x12 * x13
   - 28 x12 * x17 + 66 x12 * x18 + 42 x12 * x20 + 92 x12 * x23
   - 34 x12 * x24 + 54 x12 * x25 - 62 x12 * x26 - 16 x13 ^2 + 56 x13 * x14
   - 36 x13 * x17 + 68 x13 * x18 - 38 x13 * x19 - 22 x13 * x20
   + 92 x13 * x24 + 58 x13 * x26 + 56 x13 * x27 - 16 x13 * x28 - 44 x14 ^2
   + 2 x14 * x15 - 98 x14 * x16 + 26 x14 * x19 - 34 x14 * x20
   + 28 x14 * x21 - 82 x14 * x27 + 28 x14 * x28 + 6 x15 * x17
   - 72 x15 * x18 + 68 x15 * x20 - 86 x15 * x21 - 22 x15 * x22
   - 60 x15 * x23 + 88 x15 * x24 - 88 x15 * x25 + 54 x15 * x28
   + 24 x15 * x29 + 2 x16 ^2 + 14 x16 * x17 - 16 x16 * x18 + 78 x16 * x19
   - 84 x16 * x20 + 64 x16 * x25 + 98 x16 * x28 - 10 x16 * x29 + x17 ^2
   + 6 x17 * x19 + 2 x17 * x21 - 90 x17 * x23 + 76 x17 * x24 + 88 x17 * x25
   - 66 x17 * x26 - 42 x17 * x27 + 22 x17 * x28 + 38 x17 * x29
   + 82 x18 * x20 - 88 x18 * x21 + 96 x18 * x22 + 18 x18 * x23
   + 26 x18 * x24 - 56 x18 * x25 - 86 x18 * x26 + 38 x18 * x28
   - 78 x18 * x29 - 38 x19 ^2 - 98 x19 * x20 + 20 x19 * x21 + 80 x19 * x23
   + 46 x19 * x24 - 64 x19 * x25 + 18 x19 * x26 - 92 x19 * x28 - 17 x20 ^2
   - 38 x20 * x23 - 52 x20 * x24 - 10 x20 * x26 + 20 x20 * x29
   - 52 x21 * x22 - 58 x21 * x26 - 94 x21 * x27 - 36 x21 * x28
   + 4 x21 * x29 - 28 x22 * x23 - 42 x22 * x24 + 4 x22 * x25 - 82 x22 * x26
   - 98 x22 * x27 - 24 x22 * x28 - 74 x22 * x29 + 38 x23 * x26
   + 30 x23 * x29 - 43 x24 ^2 + 80 x24 * x25 + 4 x24 * x26 - 66 x24 * x27
   - 64 x24 * x28 - 24 x25 ^2 + 78 x25 * x27 - 40 x25 * x28 + 6 x26 * x27
   + 96 x26 * x28 - 19 x27 ^2 - 52 x27 * x29 - 70 x28 * x29 - 33 x29 ^2
   ] / 2 
Subject To
Bounds
 x0 <= 1
 x1 <= 1
 x2 <= 1
 x3 <= 1
 x4 <= 1
 x5 <= 1
 x6 <= 1
 x7 <= 1
 x8 <= 1
 x9 <= 1
 x10 <= 1
 x11 <= 1
 x12 <= 1
 x13 <= 1
 x14 <= 1
 x15 <= 1
 x16 <= 1
 x17 <= 1
 x18 <= 1
 x19 <= 1
 x20 <= 1
 x21 <= 1
 x22 <= 1
 x23 <= 1
 x24 <= 1
 x25 <= 1
 x26 <= 1
 x27 <= 1
 x28 <= 1
 x29 <= 1
End
